20200107 93000.00 64800.00
20180625 72700.00 43200.00
20171204 65554.49 43200.26
20170904 65554.49 43200.26
20170721 65472.98 42634.93
20170714 65352.98 42634.93
20170428 65289.14 42601.09
20161226 54397.25 35458.60
20160914 54264.66 34743.46
20151231 52683.73 34404.89
20151229 52677.67 34398.83
